(set-info :smt-lib-version 2.6)
(set-logic QF_FP)
(set-info :source |
Generated by: Anastasiia Izycheva, Eva Darulova
Generated on: 2020-09-11
Generator: Pine (using Z3 Python API)
Application: Check inductiveness of a loop invariant
Target solver: CVC4

These benchmarks were generated while developing the tool Pine [1], which uses
CVC4/Z3 to check inductiveness of invariants. The work is described in [2].

[1] https://github.com/izycheva/pine
[2] A.Izycheva, E.Darulova, H.Seidl, SAS'20, "Counterexample- and Simulation-Guided Floating-Point Loop Invariant Synthesis"

 Loop:
   u' := u + 0.01 * v
   v' := v + 0.01 * (-0.5 * v - 9.81 * u)

 Input ranges:
   u in [0.0,0.0]
   v in [2.0,3.0]

 Invariant:
   -1.0*u + 0.23*v + 0.83*u^2 + -0.1*u*v + 0.06*v^2 <= 1.36
 and
   u in [-0.7,2.1]
   v in [-6.6,3.0]

 Query: Loop and Invariant and not Invariant'
|)
(set-info :license "https://creativecommons.org/licenses/by/4.0/")
(set-info :category "industrial")
(set-info :status unknown)
(declare-fun u!FP () (_ FloatingPoint 8 24))
(declare-fun v!FP () (_ FloatingPoint 8 24))
(declare-fun uFP () (_ FloatingPoint 8 24))
(declare-fun vFP () (_ FloatingPoint 8 24))
(assert
 (let ((?x154 (fp.mul roundNearestTiesToEven (fp.mul roundNearestTiesToEven (fp #b0 #x7a #b11101011100001010001111) v!FP) v!FP)))
 (let ((?x242 (fp.add roundNearestTiesToEven ?x154 (fp.mul roundNearestTiesToEven (fp #b1 #x7f #b00000000000000000000000) u!FP))))
 (let ((?x30 (fp.mul roundNearestTiesToEven (fp.mul roundNearestTiesToEven (fp #b1 #x7b #b10011001100110011001100) u!FP) v!FP)))
 (let ((?x132 (fp.mul roundNearestTiesToEven (fp.mul roundNearestTiesToEven (fp #b0 #x7e #b10101000111101011100001) u!FP) u!FP)))
 (let ((?x218 (fp.add roundNearestTiesToEven ?x132 (fp.add roundNearestTiesToEven ?x30 ?x242))))
 (let ((?x122 (fp.add roundNearestTiesToEven (fp.mul roundNearestTiesToEven (fp #b0 #x7c #b11010111000010100011110) v!FP) ?x218)))
 (let (($x275 (fp.leq ?x122 (fp #b0 #x7f #b01011100001010001111010))))
 (let (($x123 (fp.leq v!FP (fp #b0 #x80 #b10000000000000000000000))))
 (let (($x209 (fp.leq (fp #b1 #x81 #b10100110011001100110011) v!FP)))
 (let (($x104 (fp.leq u!FP (fp #b0 #x80 #b00001100110011001100110))))
 (let (($x81 (fp.leq (fp #b1 #x7e #b01100110011001100110011) u!FP)))
 (let ((?x147 (fp.mul roundNearestTiesToEven (fp #b0 #x82 #b00111001111010111000010) uFP)))
 (let ((?x148 (fp.sub roundNearestTiesToEven (fp.mul roundNearestTiesToEven (fp.neg (fp #b0 #x7e #b00000000000000000000000)) vFP) ?x147)))
 (let ((?x150 (fp.add roundNearestTiesToEven vFP (fp.mul roundNearestTiesToEven (fp #b0 #x78 #b01000111101011100001010) ?x148))))
 (let ((?x141 (fp.add roundNearestTiesToEven uFP (fp.mul roundNearestTiesToEven (fp #b0 #x78 #b01000111101011100001010) vFP))))
 (let (($x142 (fp.eq u!FP ?x141)))
 (let ((?x188 (fp.mul roundNearestTiesToEven (fp.mul roundNearestTiesToEven (fp #b0 #x7a #b11101011100001010001111) vFP) vFP)))
 (let ((?x52 (fp.add roundNearestTiesToEven ?x188 (fp.mul roundNearestTiesToEven (fp #b1 #x7f #b00000000000000000000000) uFP))))
 (let ((?x286 (fp.mul roundNearestTiesToEven (fp.mul roundNearestTiesToEven (fp #b1 #x7b #b10011001100110011001100) uFP) vFP)))
 (let ((?x114 (fp.mul roundNearestTiesToEven (fp.mul roundNearestTiesToEven (fp #b0 #x7e #b10101000111101011100001) uFP) uFP)))
 (let ((?x35 (fp.add roundNearestTiesToEven ?x114 (fp.add roundNearestTiesToEven ?x286 ?x52))))
 (let ((?x228 (fp.add roundNearestTiesToEven (fp.mul roundNearestTiesToEven (fp #b0 #x7c #b11010111000010100011110) vFP) ?x35)))
 (let (($x191 (fp.leq ?x228 (fp #b0 #x7f #b01011100001010001111010))))
 (let (($x92 (fp.leq vFP (fp #b0 #x80 #b10000000000000000000000))))
 (let (($x36 (fp.leq (fp #b1 #x81 #b10100110011001100110011) vFP)))
 (let (($x267 (fp.leq uFP (fp #b0 #x80 #b00001100110011001100110))))
 (let (($x240 (fp.leq (fp #b1 #x7e #b01100110011001100110011) uFP)))
 (and (and (and $x240 $x267 $x36 $x92) $x191 ) (and $x142 (fp.eq v!FP ?x150)) (or (not $x81) (not $x104) (not $x209) (not $x123) (not $x275)))))))))))))))))))))))))))))))
(check-sat)
(exit)
